NAME : local_9
TYPE : ATSP
DIMENSION : 26
EDGE_WEIGHT_TYPE : EXPLICIT
EDGE_WEIGHT_FORMAT : FULL_MATRIX
EDGE_WEIGHT_SECTION
0 652 716 10000000 301 10000000 10000000 10000000 10000000 924 321 195 10000000 666 10000000 10000000 10000000 638 1026 10000000 10000000 10000000 798 10000000 10000000 10000000 
0 0 779 10000000 370 10000000 10000000 981 10000000 10000000 911 809 849 419 10000000 10000000 10000000 10000000 10000000 10000000 849 10000000 281 10000000 785 458 
0 779 0 10000000 606 10000000 10000000 10000000 10000000 932 10000000 893 458 411 10000000 10000000 10000000 10000000 759 10000000 10000000 10000000 661 10000000 10000000 10000000 
0 10000000 10000000 0 10000000 148 944 885 405 982 10000000 10000000 10000000 10000000 205 421 276 10000000 832 508 911 730 10000000 559 863 10000000 
0 370 606 10000000 0 10000000 10000000 10000000 10000000 10000000 598 480 863 405 10000000 10000000 10000000 843 10000000 10000000 10000000 10000000 499 10000000 10000000 827 
0 10000000 10000000 148 10000000 0 892 815 419 10000000 10000000 10000000 10000000 10000000 245 350 409 10000000 949 628 772 727 10000000 630 729 10000000 
0 10000000 10000000 944 10000000 892 0 151 612 10000000 10000000 10000000 10000000 10000000 10000000 10000000 952 793 10000000 974 891 10000000 10000000 759 825 10000000 
0 981 10000000 885 10000000 815 151 0 603 10000000 10000000 10000000 10000000 10000000 10000000 10000000 935 854 10000000 993 741 10000000 10000000 797 675 10000000 
0 10000000 10000000 405 10000000 419 612 603 0 10000000 10000000 10000000 10000000 10000000 609 769 375 10000000 10000000 433 944 10000000 10000000 277 884 10000000 
0 10000000 932 982 10000000 10000000 10000000 10000000 10000000 0 945 902 10000000 10000000 10000000 10000000 797 10000000 400 786 10000000 10000000 10000000 1084 10000000 10000000 
0 911 10000000 10000000 598 10000000 10000000 10000000 10000000 943 0 127 10000000 982 10000000 10000000 10000000 387 10000000 10000000 10000000 10000000 10000000 10000000 10000000 10000000 
0 809 893 10000000 480 10000000 10000000 10000000 10000000 905 127 0 10000000 857 10000000 10000000 10000000 484 10000000 10000000 10000000 10000000 979 10000000 10000000 10000000 
0 849 458 10000000 863 10000000 10000000 10000000 10000000 10000000 10000000 10000000 0 474 10000000 10000000 10000000 10000000 10000000 10000000 10000000 10000000 602 10000000 10000000 10000000 
0 419 411 10000000 405 10000000 10000000 10000000 10000000 10000000 982 857 474 0 10000000 10000000 10000000 10000000 10000000 10000000 10000000 10000000 263 10000000 10000000 768 
0 10000000 10000000 205 10000000 245 10000000 10000000 609 10000000 10000000 10000000 10000000 10000000 0 276 429 10000000 779 667 926 525 10000000 757 888 10000000 
0 10000000 10000000 421 10000000 350 10000000 10000000 769 10000000 10000000 10000000 10000000 10000000 276 0 687 10000000 989 924 766 428 10000000 970 749 10000000 
0 10000000 10000000 276 10000000 409 952 935 375 797 10000000 10000000 10000000 10000000 429 687 0 10000000 742 242 10000000 928 10000000 378 10000000 10000000 
0 10000000 10000000 10000000 843 10000000 793 854 10000000 10000000 387 484 10000000 10000000 10000000 10000000 10000000 0 10000000 10000000 10000000 10000000 10000000 10000000 10000000 10000000 
0 10000000 759 832 10000000 949 10000000 10000000 10000000 400 10000000 10000000 10000000 10000000 779 989 742 10000000 0 836 10000000 912 10000000 10000000 10000000 10000000 
0 10000000 10000000 508 10000000 628 974 993 433 786 10000000 10000000 10000000 10000000 667 924 242 10000000 836 0 10000000 10000000 10000000 260 10000000 10000000 
0 840 10000000 911 10000000 772 891 741 944 10000000 10000000 10000000 10000000 10000000 926 766 10000000 10000000 10000000 10000000 0 10000000 994 10000000 83 589 
0 10000000 10000000 730 10000000 727 10000000 10000000 10000000 10000000 10000000 10000000 10000000 10000000 525 428 928 10000000 912 10000000 10000000 0 10000000 10000000 10000000 10000000 
0 281 661 10000000 499 10000000 10000000 10000000 10000000 10000000 10000000 979 602 263 10000000 10000000 10000000 10000000 10000000 10000000 994 10000000 0 10000000 961 517 
0 10000000 10000000 559 10000000 630 759 797 277 1041 10000000 10000000 10000000 10000000 757 970 378 10000000 10000000 260 10000000 10000000 10000000 0 10000000 10000000 
0 765 10000000 863 10000000 729 825 675 884 10000000 10000000 10000000 10000000 10000000 888 749 10000000 10000000 10000000 10000000 83 10000000 965 10000000 0 575 
0 10000000 10000000 10000000 10000000 10000000 10000000 10000000 10000000 10000000 10000000 10000000 10000000 10000000 10000000 10000000 10000000 10000000 10000000 10000000 10000000 10000000 10000000 10000000 10000000 0 
EOF